50
11321

632 707
978 110
79 758
776 989
161 683
950 701
669 635
629 454
1000 618
752 961
426 353
129 485
490 52
557 738
252 608
926 259
872 947
95 402
950 890
258 119
689 236
752 754
118 137
848 457
390 694
388 417
908 862
374 836
32 16
677 808
886 731
43 994
714 950
916 518
493 607
544 229
59 574
10 445
268 404
117 217
526 723
575 800
41 528
829 953
382 453
35 373
766 513
146 7
693 180
108 692
